&BANDS
    prefix = 'si',
    outdir = './tmp/',
    filband = 'si_bands.dat'
/
