&CONTROL
    calculation = 'bands',
    prefix = 'si',
    pseudo_dir = './pseudo/',
    outdir = './tmp/'
/

&SYSTEM
    ibrav = 2,
    celldm(1) = 10.33720283,   ! relaxed lattice parameter
    nat = 2,
    ntyp = 1,
    ecutwfc = 40.0,
    ecutrho = 320.0,
    occupations = 'fixed'
/

&ELECTRONS
    conv_thr = 1.0d-8,
    electron_maxstep = 300,
    mixing_beta = 0.3,
    diagonalization = 'cg'
/

ATOMIC_SPECIES
Si  28.0855  Si.pbe-n-kjpaw_psl.1.0.0.UPF

ATOMIC_POSITIONS crystal
Si  0.00  0.00  0.00
Si  0.25  0.25  0.25

K_POINTS crystal_b
5
0.5000 0.5000 0.5000  20   ! L
0.0000 0.0000 0.0000  20   ! Γ
0.5000 0.0000 0.5000  20   ! X
0.6250 0.2500 0.6250  20   ! W
0.3750 0.3750 0.7500  20   ! K



