&DOS
    prefix = 'si',
    outdir = './tmp/',
    fildos = 'si_dos.dat',
    Emin = -6.0,
    Emax = 6.0,
    DeltaE = 0.01 !energy step size, in eV
    ngauss = 0,
    degauss = 0.02,
/
